sing20190317.12
TTAA 67121 48698
99009 30259 06005 00099 29258 02508 92788 22846 02513
85521 19871 01509 70163 10466 02012 50588 04750 22010
40760 14569 13006 30971 31357 01503 25097 41156 16513
20245 53159 12037 15424 65964 11037 10662 78161 26024
88999
77999=
TTCC 67127 48698
70862 80561 28513
88999
77999=
TTDD 6712/ 48698
21212 11960 25521 22919 27521 33844 27010 44828 25510
55816 20504 66803 17510 77769 20514 88754 20010 99720
27512 11701 28513 22688 31514 33670 34014 44657 33016=
